N = 4;
Capacity = 8;
ItemsPerCustomer = [3, 7, 6, 6];
maxItemsPerCustomer = 7;
binCapacity = 50;
SizesOfItems = [|
  33, 14, 13, 0, 0, 0, 0
| 38, 33, 31, 28, 27, 23, 12
| 26, 17, 16, 12, 11, 10, 0
| 32, 30, 29, 27, 16, 10, 0
|];
Distance = [|
  0, 52, 45, 49, 48
| 52, 0, 7, 13, 100
| 45, 7, 0, 13, 93
| 49, 13, 13, 0, 97
| 48, 100, 93, 97, 0
|];
